(declare-fun r () Bool)
(declare-fun q () Bool)
(declare-fun p () Bool)
(assert (or q (not r)))
(assert (or (not p) r))
(assert (or (not q) r p))
(assert (or p q (not q)))
(assert (or (not r) q))
(assert (not (or (not r) q)))
(assert (not (or (not p) r)))
(assert (not (or (not q) p r)))
(assert (not (or (not p) q)))
(assert (not (or (not q) r)))

(check-sat)
(get-model)
